50
150
97
92
91
91
88
86
85
84
79
76
75
67
66
65
62
61
61
58
54
54
50
47
46
45
44
44
42
37
37
30
27
27
26
23
23
21
20
20
19
13
12
11
10
9
9
6
5
5
5
1
